Solver command line: ['/usr/local/bin/gurobi.sh']

Set parameter WLSAccessID
Set parameter WLSSecret
Set parameter LicenseID to value 2606900
Academic license 2606900 - for non-commercial use only - registered to so___@htwk-leipzig.de
Read LP format model from file /var/folders/jf/5sh4zzv94dxbcz8g7tg2jq5h0000gn/T/tmphrqony5r.pyomo.lp
Reading time = 2.14 seconds
objective: 970608 rows, 878399 columns, 2191566 nonzeros
Set parameter MIPGap to value 0.02
Gurobi Optimizer version 12.0.1 build v12.0.1rc0 (mac64[rosetta2] - Darwin 24.4.0 24E263)

CPU model: Apple M3
Thread count: 8 physical cores, 8 logical processors, using up to 8 threads

Non-default parameters:
MIPGap  0.02

Academic license 2606900 - for non-commercial use only - registered to so___@htwk-leipzig.de
Optimize a model with 970608 rows, 878399 columns and 2191566 nonzeros
Model fingerprint: 0x90134633
Model has 8783 quadratic constraints
Variable types: 755424 continuous, 122975 integer (105408 binary)
Coefficient statistics:
  Matrix range     [8e-03, 2e+02]
  QMatrix range    [1e+00, 1e+00]
  Objective range  [1e-02, 4e+02]
  Bounds range     [1e+00, 3e+00]
  RHS range        [8e-05, 1e+04]
Presolve removed 777508 rows and 658942 columns
Presolve time: 0.44s
Presolved: 193100 rows, 219457 columns, 611579 nonzeros
Variable types: 145054 continuous, 74403 integer (65619 binary)
Performing another presolve...
Presolve removed 70363 rows and 70362 columns (presolve time = 5s)...
Presolve removed 70363 rows and 70362 columns
Presolve time: 5.11s
Deterministic concurrent LP optimizer: primal and dual simplex
Showing primal log only...


Root simplex log...

Iteration    Objective       Primal Inf.    Dual Inf.      Time
       0    1.1449344e+08   4.033627e+06   6.643882e+13      7s
Concurrent spin time: 0.01s

Solved with dual simplex

Root simplex log...

Iteration    Objective       Primal Inf.    Dual Inf.      Time
   81165    1.0886624e+08   0.000000e+00   0.000000e+00      9s

Root relaxation: objective 1.088662e+08, 81165 iterations, 2.88 seconds (4.30 work units)
Total elapsed time = 9.23s (DegenMoves)

    Nodes    |    Current Node    |     Objective Bounds      |     Work
 Expl Unexpl |  Obj  Depth IntInf | Incumbent    BestBd   Gap | It/Node Time

     0     0 1.0887e+08    0  126          - 1.0887e+08      -     -    9s
H    0     0                    1.088984e+08 1.0887e+08  0.03%     -   12s
H    0     0                    1.088980e+08 1.0887e+08  0.03%     -   12s

Cutting planes:
  Gomory: 79
  Cover: 51
  Implied bound: 32
  MIR: 96
  Flow cover: 95
  RLT: 23
  Relax-and-lift: 41

Explored 1 nodes (86448 simplex iterations) in 12.69 seconds (21.84 work units)
Thread count was 8 (of 8 available processors)

Solution count 2: 1.08898e+08 1.08898e+08 

Optimal solution found (tolerance 2.00e-02)
Best objective 1.088979987943e+08, best bound 1.088662426442e+08, gap 0.0292%

